/* Objective function */
max: +t;

/* Constraints */
+0.300000011921 pi1 +0.300000011921 pi2 +0.300000011921 pi3 +0.300000011921 pi4 +0.300000011921 pi5 -t >= 0;
+0.300000011921 pi1 +0.300000041723 pi2 +0.300000011921 pi3 +0.300000309944 pi4 +0.300000011921 pi5 -t >= 0;
+0.300000011921 pi1 +0.300000011921 pi2 +0.300000011921 pi3 +0.300000011921 pi4 +0.300000548363 pi5 -t >= 0;
+0.300000011921 pi1 +0.300419688225 pi2 +0.300000011921 pi3 +0.300261318683 pi4 +0.300000607968 pi5 -t >= 0;
+0.300000011921 pi1 +0.300000011921 pi2 +0.30000013113 pi3 +0.300000101328 pi4 +0.300000011921 pi5 -t >= 0;
+pi1 +pi2 +pi3 +pi4 +pi5 = 1;
